(set-info :smt-lib-version 2.6)
(set-logic QF_UFLRA)
(set-info :source |
MathSat group

|)
(set-info :category "random")
(set-info :status sat)
(declare-fun x0 () Real)
(declare-fun x1 () Real)
(declare-fun x2 () Real)
(declare-fun x3 () Real)
(declare-fun x4 () Real)
(declare-fun x5 () Real)
(declare-fun x6 () Real)
(declare-fun x7 () Real)
(declare-fun x8 () Real)
(declare-fun x9 () Real)
(declare-fun x10 () Real)
(declare-fun x11 () Real)
(declare-fun x12 () Real)
(declare-fun x13 () Real)
(declare-fun x14 () Real)
(declare-fun x15 () Real)
(declare-fun x16 () Real)
(declare-fun x17 () Real)
(declare-fun x18 () Real)
(declare-fun x19 () Real)
(declare-fun x20 () Real)
(declare-fun x21 () Real)
(declare-fun x22 () Real)
(declare-fun x23 () Real)
(declare-fun x24 () Real)
(declare-fun x25 () Real)
(declare-fun x26 () Real)
(declare-fun x27 () Real)
(declare-fun x28 () Real)
(declare-fun x29 () Real)
(declare-fun x30 () Real)
(declare-fun x31 () Real)
(declare-fun x32 () Real)
(declare-fun x33 () Real)
(declare-fun x34 () Real)
(declare-fun x35 () Real)
(declare-fun x36 () Real)
(declare-fun x37 () Real)
(declare-fun x38 () Real)
(declare-fun x39 () Real)
(declare-fun x40 () Real)
(declare-fun x41 () Real)
(declare-fun x42 () Real)
(declare-fun x43 () Real)
(declare-fun x44 () Real)
(declare-fun x45 () Real)
(declare-fun x46 () Real)
(declare-fun x47 () Real)
(declare-fun x48 () Real)
(declare-fun x49 () Real)
(declare-fun f0_1 (Real) Real)
(declare-fun f0_2 (Real Real) Real)
(declare-fun f0_3 (Real Real Real) Real)
(declare-fun f0_4 (Real Real Real Real) Real)
(declare-fun P0 () Bool)
(declare-fun P1 () Bool)
(declare-fun P2 () Bool)
(declare-fun P3 () Bool)
(declare-fun P4 () Bool)
(declare-fun P5 () Bool)
(declare-fun P6 () Bool)
(declare-fun P7 () Bool)
(declare-fun P8 () Bool)
(declare-fun P9 () Bool)
(declare-fun P10 () Bool)
(declare-fun P11 () Bool)
(declare-fun P12 () Bool)
(declare-fun P13 () Bool)
(declare-fun P14 () Bool)
(declare-fun P15 () Bool)
(declare-fun P16 () Bool)
(declare-fun P17 () Bool)
(declare-fun P18 () Bool)
(declare-fun P19 () Bool)
(declare-fun P20 () Bool)
(declare-fun P21 () Bool)
(declare-fun P22 () Bool)
(declare-fun P23 () Bool)
(declare-fun P24 () Bool)
(declare-fun P25 () Bool)
(declare-fun P26 () Bool)
(declare-fun P27 () Bool)
(declare-fun P28 () Bool)
(declare-fun P29 () Bool)
(declare-fun P30 () Bool)
(declare-fun P31 () Bool)
(declare-fun P32 () Bool)
(declare-fun P33 () Bool)
(declare-fun P34 () Bool)
(declare-fun P35 () Bool)
(declare-fun P36 () Bool)
(declare-fun P37 () Bool)
(declare-fun P38 () Bool)
(declare-fun P39 () Bool)
(declare-fun P40 () Bool)
(declare-fun P41 () Bool)
(declare-fun P42 () Bool)
(declare-fun P43 () Bool)
(declare-fun P44 () Bool)
(declare-fun P45 () Bool)
(declare-fun P46 () Bool)
(declare-fun P47 () Bool)
(declare-fun P48 () Bool)
(declare-fun P49 () Bool)
(assert (let ((?v_52 (* 14 x35)) (?v_9 (* 25 x9)) (?v_19 (* 23 x38)) (?v_170 (* 6 x18))) (let ((?v_76 (distinct (- (+ ?v_170 ?v_9) (* 15 x15)) 22)) (?v_20 (< (- (- (* 25 x42) (* 7 x28)) (* 10 x17)) 14)) (?v_36 (* 20 x48))) (let ((?v_40 (<= (+ (- ?v_36 (* 8 x49)) (* 16 x16)) 15)) (?v_59 (* 12 x13)) (?v_49 (* 27 x4)) (?v_162 (= (- (+ (* 16 x18) (* 9 x30)) (* 12 x8)) 8)) (?v_0 (distinct x45 x28)) (?v_135 (= (f0_1 x18) (f0_2 x9 x16))) (?v_83 (= (f0_2 x1 x36) x23)) (?v_142 (f0_1 x15))) (let ((?v_147 (= ?v_142 (f0_2 x8 x8))) (?v_27 (f0_1 x20))) (let ((?v_110 (distinct ?v_27 (f0_2 x16 x33))) (?v_155 (f0_1 x14))) (let ((?v_208 (= ?v_155 (f0_2 x13 x41))) (?v_211 (f0_1 x29))) (let ((?v_213 (distinct (f0_2 x41 x1) ?v_211)) (?v_96 (f0_1 x12))) (let ((?v_117 (= ?v_96 x10)) (?v_178 (= (f0_2 x26 x12) (f0_1 x46))) (?v_207 (= (f0_2 x24 x10) (f0_2 x19 x36))) (?v_180 (= x17 (f0_1 x38))) (?v_14 (= (f0_1 x5) x17)) (?v_6 (f0_1 x7))) (let ((?v_7 (= x3 ?v_6)) (?v_46 (= x6 (f0_1 x0))) (?v_33 (= x17 x34)) (?v_94 (= x37 x16)) (?v_1 (= (f0_2 x18 x8) ?v_6)) (?v_172 (distinct (f0_1 x19) ?v_155)) (?v_132 (distinct x3 (f0_2 x22 x49))) (?v_125 (distinct (f0_2 x14 x44) x1)) (?v_28 (f0_1 x23))) (let ((?v_108 (distinct ?v_28 x31)) (?v_184 (distinct x5 x30)) (?v_107 (distinct (f0_1 x13) x35)) (?v_129 (distinct (f0_2 x45 x25) x2)) (?v_74 (= ?v_211 (f0_2 x45 x47))) (?v_222 (distinct (f0_1 x44) x41)) (?v_202 (distinct x22 x40)) (?v_131 (distinct x25 (f0_1 x28))) (?v_73 (= (f0_2 x46 x34) x39)) (?v_159 (distinct (f0_2 x33 x42) (f0_2 x33 x34))) (?v_114 (= ?v_27 (f0_1 x43))) (?v_32 (= x27 x15)) (?v_229 (= (f0_2 x43 x29) x14)) (?v_67 (distinct (f0_2 x38 x6) (f0_2 x9 x3))) (?v_21 (distinct ?v_142 (f0_2 x13 x17))) (?v_72 (= (f0_1 x48) x3)) (?v_81 (= (f0_2 x37 x21) (f0_1 x27))) (?v_84 (distinct x30 x48)) (?v_145 (= (f0_2 x39 x39) (f0_2 x19 x22))) (?v_23 (distinct ?v_96 (f0_2 x12 x36))) (?v_22 (= x24 x29)) (?v_174 (= (f0_2 x11 x42) ?v_28)) (?v_252 (distinct (f0_2 x6 x19) x41)) (?v_209 (= (f0_1 x4) ?v_6)) (?v_112 (distinct (f0_2 x12 x12) (f0_1 x40))) (?v_16 (distinct (f0_2 x17 x29) (f0_2 x48 x36))) (?v_93 (= (f0_2 x28 x21) (f0_1 x21))) (?v_54 (distinct (f0_1 x37) x18)) (?v_80 (distinct x49 x43)) (?v_249 (= (f0_2 x22 x35) (f0_2 x10 x48))) (?v_77 (not ?v_1)) (?v_24 (not P43))) (let ((?v_69 (not ?v_32)) (?v_5 (not P27)) (?v_100 (not P32)) (?v_146 (not ?v_131)) (?v_137 (not P26)) (?v_17 (not ?v_222)) (?v_235 (not ?v_21)) (?v_15 (not P18)) (?v_12 (not ?v_159)) (?v_42 (not P48)) (?v_47 (not ?v_16)) (?v_11 (not P19)) (?v_143 (not ?v_14)) (?v_248 (not ?v_184)) (?v_3 (not P10)) (?v_189 (not ?v_107)) (?v_238 (not P7)) (?v_216 (not ?v_22)) (?v_13 (not P16)) (?v_190 (not P0)) (?v_26 (not ?v_76)) (?v_51 (not ?v_114)) (?v_218 (not P21)) (?v_31 (not P39)) (?v_56 (not ?v_108)) (?v_35 (not ?v_162)) (?v_200 (not ?v_67)) (?v_68 (not P30)) (?v_122 (not P34)) (?v_39 (not P47)) (?v_118 (not ?v_20)) (?v_37 (not ?v_7)) (?v_156 (not P40)) (?v_255 (not ?v_0)) (?v_109 (not ?v_174)) (?v_99 (not ?v_112)) (?v_64 (not P3)) (?v_50 (not P1)) (?v_221 (not ?v_33)) (?v_45 (not P2)) (?v_149 (not P14)) (?v_133 (not P4)) (?v_53 (not P12)) (?v_116 (not P33)) (?v_71 (not ?v_40)) (?v_58 (not ?v_80)) (?v_160 (not ?v_46)) (?v_101 (not P28)) (?v_78 (not P17)) (?v_144 (not P24)) (?v_194 (not ?v_54)) (?v_127 (not ?v_73)) (?v_70 (not ?v_132)) (?v_120 (not ?v_94)) (?v_82 (not ?v_23)) (?v_206 (not P15)) (?v_198 (not P37)) (?v_224 (not ?v_72)) (?v_230 (not ?v_74)) (?v_90 (not ?v_83)) (?v_95 (not ?v_172)) (?v_161 (not P9)) (?v_226 (not P23)) (?v_177 (not P25)) (?v_242 (not ?v_229)) (?v_253 (not P31)) (?v_246 (not ?v_110)) (?v_191 (not P45)) (?v_185 (not ?v_125)) (?v_175 (not P42)) (?v_167 (not P5)) (?v_130 (not ?v_129)) (?v_168 (not P49))) (let ((?v_231 (or P42 ?v_130)) (?v_138 (not ?v_135)) (?v_228 (not ?v_147)) (?v_176 (not ?v_145)) (?v_192 (not ?v_207)) (?v_182 (not ?v_117)) (?v_193 (not P36)) (?v_183 (not ?v_93)) (?v_223 (not ?v_180)) (?v_243 (not ?v_249)) (?v_203 (not P11)) (?v_205 (not ?v_202)) (?v_257 (not ?v_208)) (?v_212 (not ?v_209)) (?v_225 (not P46)) (?v_219 (not P6)) (?v_261 (not ?v_213)) (?v_217 (not ?v_252)) (?v_251 (not P44)) (?v_232 (not P35)) (?v_263 (not ?v_84)) (?v_241 (not P29)) (?v_247 (not P13)) (?v_239 (not P38)) (?v_260 (not P22)) (?v_250 (not P8)) (?v_256 (not ?v_81)) (?v_262 (not P20)) (?v_259 (not ?v_178)) (?v_153 (<= (- (- (* 11 x18) (* 7 x43)) 0) 21)) (?v_34 (= (- (* 24 x6) (* 2 x28)) 7))) (let ((?v_196 (not ?v_34)) (?v_75 (< (- (- (* 22 x27) x38) (* 9 x35)) 23))) (let ((?v_173 (not ?v_75)) (?v_163 (<= (+ (* 8 x5) (* 13 x24)) 23)) (?v_169 (<= (- (* 11 x43) 0) 16))) (let ((?v_123 (not ?v_169)) (?v_97 (< (+ (* 10 x15) (* 15 x10)) 20))) (let ((?v_25 (not ?v_97)) (?v_86 (< (- (- 0 (* 25 x22)) ?v_52) 26))) (let ((?v_186 (not ?v_86)) (?v_227 (not ?v_153)) (?v_233 (not ?v_163)) (?v_18 (< (- (- 0 (* 18 x49)) (* 25 x36)) (- 5))) (?v_10 (< (- (- (* (- 7) x33) ?v_9) ?v_52) (- 14))) (?v_60 (<= (- (+ (* (- 13) x15) x2) (* 18 x40)) (- 13)))) (let ((?v_4 (not ?v_60)) (?v_2 (<= (+ (- (* (- 10) x27) (* 27 x1)) (* 11 x9)) 11)) (?v_66 (<= (- (+ (* (- 1) x44) (* 16 x21)) (* 16 x2)) (- 8))) (?v_48 (= (+ (- (* 18 x3) (* 21 x16)) (* 10 x42)) (- 1))) (?v_237 (<= (+ (* 25 x15) ?v_19 (* 27 x37)) (- 19)))) (let ((?v_89 (not ?v_237)) (?v_8 (distinct (+ (* 5 x48) (* 15 x24) (* 6 x42)) (- 15))) (?v_141 (<= (+ (- (* 19 x28) (* 2 x32)) (* 16 x17)) (- 10)))) (let ((?v_148 (not ?v_141)) (?v_65 (not ?v_8)) (?v_44 (< (- (- (* (- 1) x42) (* 5 x39)) (* 19 x49)) (- 6)))) (let ((?v_62 (not ?v_44)) (?v_103 (<= (+ (* (- 2) x15) (* 22 x8) (* 27 x47)) 27))) (let ((?v_91 (not ?v_103)) (?v_43 (not ?v_18)) (?v_87 (< (- (+ (* (- 4) x39) (* 27 x28)) (* 23 x3)) 25)) (?v_105 (< (+ (* (- 13) x16) (* 4 x2) (* 24 x49)) 0))) (let ((?v_79 (not ?v_105)) (?v_63 (< (+ (- (* (- 13) x9) x36) (* 25 x25)) (- 11))) (?v_29 (<= (+ ?v_36 ?v_19) (- 24))) (?v_30 (<= (- (- (* (- 2) x2) (* 22 x21)) 0) (- 5)))) (let ((?v_152 (not ?v_30)) (?v_201 (<= (- (- (* (- 27) x38) (* 20 x45)) (* 8 x32)) (- 18)))) (let ((?v_187 (not ?v_201)) (?v_98 (distinct (+ (* (- 5) x23) (* 10 x4) (* 6 x49)) 6))) (let ((?v_102 (not ?v_98)) (?v_41 (< (+ (- (* (- 25) x41) (* 15 x8)) (* 7 x38)) 15))) (let ((?v_164 (not ?v_41)) (?v_165 (< (- (- (* 25 x6) (* 4 x35)) ?v_59) (- 24)))) (let ((?v_38 (not ?v_165)) (?v_236 (not ?v_29)) (?v_171 (not ?v_10)) (?v_55 (< (- (+ (* (- 16) x18) (* 10 x19)) x31) (- 3))) (?v_119 (distinct (+ (- (* (- 10) x28) (* 7 x12)) (* 11 x27)) 28))) (let ((?v_92 (not ?v_119)) (?v_154 (< (+ (* 25 x10) ?v_49) (- 29)))) (let ((?v_85 (not ?v_154)) (?v_104 (< (+ (- (* (- 23) x26) (* 27 x32)) (* 12 x35)) 5))) (let ((?v_136 (not ?v_104)) (?v_61 (<= (+ (- (* 23 x31) (* 7 x3)) x34) (- 28)))) (let ((?v_181 (not ?v_61)) (?v_140 (<= (- (+ (* (- 7) x0) (* 11 x30)) (* 15 x49)) 29))) (let ((?v_134 (not ?v_140)) (?v_139 (<= (+ (- (* 5 x27) (* 12 x41)) (* 18 x27)) (- 2))) (?v_121 (< (- (- (* (- 22) x22) (* 6 x19)) (* 7 x15)) (- 21))) (?v_240 (<= (+ ?v_49 ?v_36) (- 8)))) (let ((?v_106 (not ?v_240)) (?v_57 (not ?v_48)) (?v_204 (distinct (- (+ (* 6 x31) ?v_59) 0) (- 20)))) (let ((?v_179 (not ?v_204)) (?v_113 (not ?v_63)) (?v_128 (< (* (- 2) x20) (- 13)))) (let ((?v_88 (not ?v_128)) (?v_197 (not ?v_66)) (?v_111 (< (+ (- (* (- 17) x14) (* 25 x24)) (* 4 x32)) (- 8)))) (let ((?v_214 (not ?v_111)) (?v_215 (not ?v_87)) (?v_126 (not (<= (+ (* (- 3) x33) (* 14 x24) (* 19 x22)) 12))) (?v_115 (<= (+ (* (- 16) x13) (* 24 x5) (* 5 x31)) 11))) (let ((?v_124 (not ?v_115)) (?v_158 (<= (- (+ (* (- 1) x40) (* 15 x27)) (* 12 x32)) 0))) (let ((?v_150 (not ?v_158)) (?v_234 (not ?v_121)) (?v_166 (or ?v_128 ?v_130)) (?v_151 (<= (+ (- (* (- 4) x24) (* 26 x20)) (* 11 x48)) 4)) (?v_157 (not ?v_139)) (?v_195 (distinct (- (* (- 26) x35) (* 10 x25)) 19))) (let ((?v_254 (not ?v_195)) (?v_188 (<= (+ (* 8 x37) (* 16 x30) (* 17 x5)) (- 15))) (?v_220 (not ?v_55)) (?v_210 (distinct (- (- ?v_170 (* 8 x11)) (* 6 x17)) (- 29))) (?v_199 (not ?v_151))) (let ((?v_245 (not ?v_188)) (?v_244 (not ?v_210)) (?v_258 (not ?v_2))) (and (and (and (and (and (and (and (and (and (and (and (and (and (and (and (and (and (and (and (and (and (and (and (and (and (and (and (and (and (and (and (and (and (and (and (and (and (and (and (and (and (and (and (and (and (and (and (and (and (and (and (and (and (and (and (and (and (and (and (and (and (and (and (and (and (and (and (and (and (and (and (and (and (and (and (and (and (and (and (and (and (and (and (and (and (and (and (and (and (and (and (and (and (and (and (and (and (and (and (and (and (and (and (and (and (and (and (and (and (and (and (and (and (and (and (and (and (and (and (and (and (and (and (and (and (and (and (and (and (and (and (and (and (and (and (and (and (and (and (and (and (and (and (and (and (and (and (and (and (and (and (and (and (and (and (and (and (and (and (and (and (and (and (and (and (and (and (and (and (and (and (and (and (and (and (and (and (and (and (and (and (and (and (and (and (and (and (and (and (and (and (and (and (and (and (and (and (and (and (and (and (and (and (and (and (and (and (and (and (and (and (and (and (and (and (and (and (and (and (and (and (and (and (and (and (and (and (and (and (and (and (and (and (and (and (and (and (and (and (and (and (and (and (and (and (and (and (and (and (and (and (and (and (and (and (and (and (and (and (and (and (and (and (and (and (and (and (and (and (and (and (and (and (and (and (and (and (and (and (and (and (and (and (and (and (and (and (and (and (and (and (and (and (and (and (and (and (and (and (and (and (and (and (and (and (and (and (and (and (and (and (and (and (and (and (and (and (and (and (and (and (and (and (and (and (and (and (and (and (and (and (and (and (and (and (and (and (and (and (and (and (and (and (and (and (and (and (and (and (and (and (and (and (and (and (and (and (and (and (and (and (and (and (and (and (and (and (and (and (and (and (and (and (and (and (and (and (and (and (and (and (and (and (and (and (and (and (and (and (and (and (and (and (and (and (and (and (and (and (and (and (and (and (and (and (and (and (and (and (and (and (and (and (and (and (and (and (and (and (and (and (and (and (and (and (and (and (and (and (and (and (and (and (and (and (and (and (and (and (and (and (and (and (and (and (and (and (and (and (and (and (and (and (and (and (and (and (and (and (and (and (and (and (and (and (and (and (and (and (and (and (and (and (and (and (and (and (and (and (and (and (and (and (and (and (and (and (and (and (and (and (and (and (and (and (and (and (and (and (and (and (and (and (and (and (and (and (and (and (and (and (and (and (and (and (and (and (and (and (and (and (and (and (and (and (and (and (and (and (and (and (and (and (and (and (and (and (and (and (and (and (and (and (and (and (and (and (and (and (and (and (and (and (and (and (and (and (and (and (and (and (and (and (and (and (and (and (and (and (and (and (and (and (and (and (and (and (and (and (and (and (and (and (and (and (and (and (and (and (and (and (and (and (and (and (and (and (and (and (or (or ?v_77 ?v_0) ?v_24) (or (or ?v_18 ?v_10) P1)) (or (or ?v_69 ?v_5) ?v_0)) (or (or P49 P28) P36)) (or (or P42 ?v_100) ?v_146)) (or (or ?v_137 P48) P30)) (or (or P8 ?v_17) ?v_125)) (or (or ?v_4 ?v_23) ?v_235)) (or (or ?v_2 ?v_84) ?v_153)) (or (or ?v_202 ?v_33) ?v_1)) (or (or ?v_15 ?v_12) ?v_42)) (or (or ?v_47 ?v_11) P4)) (or (or ?v_66 ?v_143) ?v_48)) (or (or ?v_248 ?v_3) ?v_20)) (or (or ?v_2 ?v_89) P3)) (or (or ?v_196 ?v_74) ?v_173)) (or (or ?v_189 ?v_3) ?v_8)) (or (or ?v_238 ?v_163) ?v_216)) (or (or ?v_13 P43) P31)) (or (or ?v_190 ?v_4) ?v_5)) (or (or ?v_7 ?v_7) ?v_123)) (or (or ?v_148 ?v_65) ?v_26)) (or (or P20 ?v_5) ?v_10)) (or (or ?v_11 ?v_12) ?v_13)) (or (or P36 ?v_62) ?v_1)) (or (or ?v_14 ?v_51) P24)) (or (or ?v_91 ?v_15) ?v_5)) (or (or ?v_218 ?v_16) P16)) (or (or ?v_31 ?v_56) ?v_25)) (or (or ?v_35 ?v_200) P36)) (or (or ?v_17 P13) P26)) (or (or ?v_43 ?v_68) P9)) (or (or ?v_4 P48) ?v_122)) (or (or ?v_87 ?v_79) ?v_63)) (or (or ?v_39 ?v_29) ?v_118)) (or (or ?v_21 ?v_37) ?v_22)) (or (or ?v_152 ?v_23) P41)) (or (or ?v_24 ?v_25) P18)) (or (or ?v_24 ?v_26) ?v_110)) (or (or ?v_187 ?v_156) ?v_102)) (or (or P32 ?v_3) ?v_164)) (or (or ?v_38 ?v_255) ?v_13)) (or (or ?v_109 P34) P9)) (or (or ?v_236 ?v_30) P1)) (or (or ?v_99 ?v_72) P35)) (or (or ?v_171 ?v_46) ?v_55)) (or (or ?v_64 ?v_31) ?v_11)) (or (or ?v_92 ?v_32) ?v_50)) (or (or ?v_221 ?v_34) ?v_35)) (or (or ?v_45 ?v_85) P14)) (or (or P13 ?v_54) ?v_40)) (or (or ?v_149 ?v_37) P6)) (or (or P5 P3) ?v_38)) (or (or ?v_38 ?v_133) ?v_53)) (or (or ?v_136 ?v_39) ?v_116)) (or (or ?v_71 ?v_58) ?v_7)) (or (or ?v_41 ?v_181) ?v_26)) (or (or ?v_42 ?v_134) P7)) (or (or ?v_43 ?v_44) ?v_45)) (or (or ?v_160 P40) ?v_139)) (or (or ?v_121 P4) ?v_47)) (or (or ?v_101 ?v_81) ?v_78)) (or (or ?v_37 ?v_12) ?v_48)) (or (or ?v_106 ?v_93) ?v_20)) (or (or P33 ?v_144) ?v_50)) (or (or P23 ?v_51) ?v_186)) (or (or ?v_53 ?v_194) ?v_55)) (or (or ?v_10 ?v_57) ?v_56)) (or (or P44 ?v_57) P14)) (or (or ?v_58 ?v_179) ?v_127)) (or (or ?v_70 ?v_60) ?v_120)) (or (or ?v_61 ?v_62) ?v_113)) (or (or ?v_64 ?v_88) ?v_82)) (or (or P20 ?v_206) ?v_65)) (or (or ?v_197 ?v_67) ?v_198)) (or (or ?v_68 ?v_69) ?v_70)) (or (or ?v_71 ?v_46) ?v_34)) (or (or ?v_47 ?v_224) ?v_73)) (or (or ?v_71 ?v_230) ?v_75)) (or (or ?v_74 P17) ?v_76)) (or (or ?v_83 ?v_77) ?v_78)) (or (or ?v_44 ?v_79) ?v_80)) (or (or ?v_81 ?v_26) ?v_214)) (or (or ?v_135 ?v_15) ?v_82)) (or (or ?v_90 ?v_95) ?v_84)) (or (or ?v_85 ?v_47) ?v_72)) (or (or ?v_86 ?v_33) ?v_215)) (or (or ?v_88 ?v_89) P29)) (or (or ?v_126 ?v_90) ?v_91)) (or (or (not P41) ?v_92) ?v_54)) (or (or P34 ?v_124) ?v_93)) (or (or ?v_161 ?v_91) ?v_94)) (or (or P13 ?v_95) ?v_42)) (or (or ?v_145 ?v_117) P33)) (or (or ?v_97 ?v_65) ?v_5)) (or (or ?v_39 P49) ?v_98)) (or (or ?v_99 ?v_0) ?v_100)) (or (or P43 ?v_77) ?v_101)) (or (or P39 ?v_102) ?v_226)) (or (or ?v_103 ?v_104) ?v_17)) (or (or ?v_177 ?v_65) ?v_242)) (or (or P12 ?v_105) ?v_106)) (or (or ?v_107 ?v_253) ?v_108)) (or (or ?v_109 ?v_60) P38)) (or (or P14 ?v_48) ?v_150)) (or (or ?v_76 ?v_246) ?v_111)) (or (or ?v_107 ?v_112) ?v_109)) (or (or ?v_113 ?v_54) ?v_114)) (or (or ?v_115 ?v_76) ?v_8)) (or (or ?v_47 ?v_57) ?v_116)) (or (or ?v_117 P15) ?v_38)) (or (or ?v_191 ?v_60) ?v_3)) (or (or ?v_110 P45) ?v_70)) (or (or ?v_1 ?v_118) ?v_8)) (or (or ?v_119 ?v_120) ?v_14)) (or (or ?v_60 ?v_234) ?v_122)) (or (or ?v_123 ?v_129) ?v_124)) (or (or ?v_70 ?v_8) ?v_16)) (or (or ?v_121 ?v_85) ?v_78)) (or (or ?v_185 ?v_70) ?v_126)) (or (or ?v_127 ?v_108) P13)) (or (or ?v_91 ?v_175) ?v_167)) (or ?v_166 ?v_168)) (or (or ?v_111 ?v_63) ?v_47)) (or ?v_231 ?v_105)) (or (or ?v_41 ?v_106) ?v_131)) (or (or P44 ?v_132) ?v_151)) (or (or ?v_133 ?v_134) ?v_138)) (or (or ?v_136 ?v_115) P15)) (or (or ?v_209 P30) ?v_72)) (or (or ?v_136 ?v_24) ?v_137)) (or (or ?v_138 ?v_134) ?v_157)) (or (or ?v_1 P35) ?v_78)) (or (or ?v_0 ?v_4) ?v_5)) (or (or ?v_254 ?v_188) ?v_140)) (or (or P11 ?v_23) P13)) (or (or ?v_141 ?v_228) ?v_143)) (or (or ?v_128 ?v_91) ?v_90)) (or (or ?v_42 ?v_143) ?v_134)) (or (or ?v_144 P1) ?v_176)) (or (or P15 ?v_146) ?v_100)) (or (or ?v_147 ?v_21) P33)) (or (or ?v_148 ?v_220) ?v_192)) (or (or ?v_60 ?v_84) ?v_0)) (or (or ?v_1 ?v_85) ?v_143)) (or (or P6 ?v_102) ?v_21)) (or (or ?v_149 ?v_147) ?v_76)) (or (or ?v_150 ?v_113) ?v_151)) (or (or ?v_152 ?v_74) ?v_153)) (or (or ?v_15 ?v_154) ?v_208)) (or (or ?v_156 ?v_157) ?v_158)) (or (or ?v_61 ?v_159) ?v_35)) (or (or ?v_16 ?v_160) ?v_43)) (or (or ?v_74 P5) P18)) (or (or P19 ?v_161) ?v_182)) (or (or ?v_144 P4) ?v_32)) (or (or ?v_162 P15) ?v_70)) (or (or ?v_163 ?v_73) ?v_123)) (or (or ?v_164 P10) ?v_100)) (or (or ?v_165 ?v_103) P8)) (or (or ?v_144 ?v_112) P1)) (or (or ?v_113 ?v_18) ?v_58)) (or ?v_166 ?v_157)) (or (or P42 ?v_167) ?v_150)) (or (or ?v_193 ?v_168) P20)) (or (or P45 ?v_102) P5)) (or (or ?v_62 ?v_66) ?v_148)) (or (or ?v_117 ?v_76) ?v_180)) (or (or ?v_38 ?v_73) P44)) (or (or ?v_162 ?v_18) ?v_70)) (or (or P45 ?v_25) ?v_169)) (or (or P8 ?v_165) ?v_210)) (or (or ?v_171 ?v_116) ?v_62)) (or (or ?v_41 ?v_78) ?v_178)) (or (or ?v_104 ?v_99) P9)) (or (or ?v_2 ?v_87) ?v_183)) (or (or ?v_172 ?v_92) ?v_23)) (or (or ?v_137 ?v_61) ?v_24)) (or (or ?v_199 ?v_144) ?v_77)) (or (or ?v_1 ?v_173) ?v_129)) (or (or ?v_174 ?v_175) ?v_148)) (or (or P8 P43) ?v_143)) (or (or ?v_15 ?v_176) ?v_22)) (or (or ?v_167 ?v_227) ?v_118)) (or (or P37 ?v_64) ?v_177)) (or (or ?v_107 ?v_120) ?v_97)) (or (or ?v_81 ?v_92) ?v_178)) (or (or P33 ?v_129) ?v_179)) (or (or ?v_116 ?v_223) ?v_181)) (or (or ?v_100 ?v_182) ?v_108)) (or (or ?v_179 ?v_183) ?v_120)) (or (or ?v_58 ?v_5) P15)) (or (or ?v_12 ?v_62) P27)) (or (or ?v_22 P35) ?v_89)) (or (or ?v_184 ?v_185) P20)) (or (or ?v_118 ?v_186) ?v_187)) (or (or ?v_153 ?v_243) P23)) (or (or ?v_188 P30) P19)) (or (or ?v_43 P47) ?v_148)) (or (or ?v_189 ?v_73) ?v_53)) (or (or P40 ?v_245) ?v_190)) (or (or ?v_18 ?v_179) ?v_126)) (or (or ?v_147 ?v_191) ?v_149)) (or (or ?v_140 ?v_61) ?v_179)) (or (or P16 ?v_31) ?v_84)) (or (or ?v_192 ?v_119) ?v_121)) (or (or ?v_193 ?v_183) ?v_24)) (or (or ?v_203 ?v_111) ?v_69)) (or (or ?v_26 ?v_153) ?v_194)) (or (or ?v_85 ?v_195) ?v_123)) (or (or ?v_116 ?v_158) P34)) (or (or ?v_0 ?v_137) ?v_196)) (or (or ?v_165 ?v_197) ?v_127)) (or (or P32 ?v_66) ?v_1)) (or (or ?v_115 ?v_82) ?v_198)) (or (or ?v_188 P22) ?v_86)) (or (or ?v_97 ?v_4) ?v_199)) (or (or ?v_200 P31) ?v_169)) (or (or ?v_114 P8) ?v_115)) (or (or ?v_201 ?v_140) ?v_62)) (or (or ?v_90 ?v_205) P31)) (or (or ?v_103 ?v_203) ?v_204)) (or (or ?v_133 ?v_68) ?v_201)) (or (or ?v_139 ?v_110) P9)) (or (or ?v_187 ?v_97) ?v_128)) (or (or ?v_40 ?v_118) ?v_33)) (or (or ?v_204 ?v_29) ?v_141)) (or (or ?v_109 ?v_122) ?v_165)) (or (or ?v_205 ?v_86) ?v_206)) (or (or ?v_206 ?v_69) ?v_136)) (or (or ?v_4 ?v_193) P44)) (or (or P46 P11) ?v_195)) (or (or ?v_91 ?v_38) ?v_108)) (or (or ?v_22 ?v_207) P15)) (or (or P33 ?v_257) ?v_35)) (or (or P3 ?v_110) ?v_212)) (or (or P15 ?v_73) ?v_119)) (or (or ?v_192 ?v_99) ?v_48)) (or (or ?v_114 P7) ?v_88)) (or (or ?v_128 ?v_113) P45)) (or (or ?v_8 ?v_147) P24)) (or (or ?v_97 ?v_114) ?v_110)) (or (or ?v_76 ?v_73) P5)) (or (or ?v_21 ?v_91) ?v_177)) (or (or ?v_57 ?v_169) ?v_16)) (or (or P32 ?v_58) ?v_225)) (or (or ?v_244 P35) ?v_115)) (or (or P47 ?v_144) P10)) (or (or ?v_93 P15) ?v_200)) (or (or P19 ?v_126) ?v_150)) (or (or ?v_213 P15) ?v_114)) (or (or ?v_21 ?v_92) ?v_123)) (or (or ?v_219 ?v_212) ?v_79)) (or (or ?v_213 ?v_123) P45)) (or (or P13 P40) ?v_191)) (or (or ?v_214 ?v_106) ?v_215)) (or (or ?v_79 P1) ?v_261)) (or (or ?v_216 ?v_112) ?v_121)) (or (or ?v_171 ?v_111) ?v_215)) (or (or ?v_217 ?v_251) ?v_138)) (or (or P34 ?v_60) ?v_193)) (or (or P6 ?v_5) P42)) (or (or ?v_139 ?v_85) ?v_232)) (or (or ?v_263 P23) ?v_46)) (or (or ?v_75 ?v_98) ?v_134)) (or (or ?v_217 P32) ?v_218)) (or (or ?v_102 ?v_62) ?v_148)) (or (or ?v_144 ?v_203) P39)) (or (or ?v_202 ?v_34) ?v_233)) (or (or ?v_24 ?v_139) ?v_58)) (or (or ?v_219 ?v_14) ?v_241)) (or (or ?v_139 ?v_205) ?v_121)) (or (or ?v_191 ?v_15) ?v_220)) (or (or ?v_221 ?v_20) ?v_43)) (or (or P32 ?v_222) ?v_113)) (or (or P23 ?v_223) ?v_10)) (or (or ?v_213 ?v_201) ?v_135)) (or (or ?v_79 ?v_186) ?v_82)) (or (or P2 P49) ?v_210)) (or (or ?v_111 ?v_45) ?v_29)) (or (or ?v_177 ?v_74) ?v_47)) (or (or ?v_191 ?v_116) P46)) (or (or ?v_158 ?v_4) ?v_13)) (or (or ?v_17 ?v_199) ?v_224)) (or (or ?v_111 ?v_3) ?v_122)) (or (or ?v_94 ?v_111) ?v_66)) (or (or P4 ?v_218) ?v_7)) (or (or ?v_110 P40) ?v_51)) (or (or ?v_225 ?v_113) ?v_221)) (or (or ?v_226 ?v_23) ?v_39)) (or (or ?v_227 ?v_80) ?v_70)) (or (or ?v_180 ?v_222) ?v_228)) (or (or ?v_70 ?v_136) ?v_121)) (or (or ?v_247 ?v_33) ?v_66)) (or (or ?v_18 P41) ?v_132)) (or (or ?v_41 ?v_122) ?v_157)) (or (or ?v_76 ?v_171) ?v_229)) (or (or ?v_168 ?v_160) ?v_37)) (or (or ?v_26 ?v_230) ?v_98)) (or (or P19 ?v_78) P14)) (or (or ?v_123 ?v_132) ?v_105)) (or (or P45 ?v_133) ?v_112)) (or (or ?v_220 ?v_86) ?v_214)) (or ?v_231 ?v_125)) (or (or P0 ?v_75) ?v_232)) (or (or ?v_75 ?v_44) ?v_38)) (or (or ?v_12 ?v_173) ?v_117)) (or (or ?v_40 P41) ?v_98)) (or (or ?v_2 ?v_233) ?v_184)) (or (or ?v_232 ?v_55) ?v_233)) (or (or ?v_146 ?v_61) ?v_113)) (or (or ?v_177 ?v_234) P24)) (or (or ?v_137 ?v_187) ?v_115)) (or (or ?v_13 P41) ?v_107)) (or (or P17 ?v_209) ?v_215)) (or (or ?v_14 ?v_173) ?v_152)) (or (or ?v_196 ?v_119) ?v_222)) (or (or ?v_203 ?v_1) ?v_112)) (or (or ?v_18 ?v_132) P32)) (or (or ?v_5 P23) ?v_13)) (or (or ?v_17 ?v_39) ?v_78)) (or (or ?v_233 ?v_57) ?v_95)) (or (or ?v_235 ?v_146) ?v_213)) (or (or ?v_181 ?v_202) ?v_236)) (or (or ?v_136 ?v_222) ?v_45)) (or (or P29 ?v_46) P18)) (or (or ?v_109 ?v_82) ?v_145)) (or (or ?v_116 ?v_187) ?v_17)) (or (or ?v_113 ?v_60) ?v_237)) (or (or ?v_193 ?v_89) P37)) (or (or ?v_135 ?v_118) ?v_30)) (or (or ?v_83 ?v_117) P8)) (or (or P3 ?v_200) ?v_163)) (or (or ?v_103 P4) ?v_100)) (or (or ?v_239 P32) ?v_129)) (or (or P27 ?v_21) P6)) (or (or ?v_227 ?v_43) ?v_181)) (or (or ?v_238 P25) ?v_84)) (or (or ?v_220 ?v_222) ?v_260)) (or (or P27 ?v_20) P17)) (or (or P44 ?v_104) ?v_163)) (or (or ?v_24 ?v_93) P16)) (or (or ?v_66 ?v_234) P35)) (or (or P2 ?v_210) ?v_18)) (or (or ?v_4 ?v_202) ?v_124)) (or (or ?v_91 ?v_4) P48)) (or (or P18 ?v_63) P42)) (or (or ?v_46 ?v_40) ?v_233)) (or (or ?v_46 ?v_23) ?v_191)) (or (or ?v_67 ?v_14) P26)) (or (or ?v_239 P17) ?v_102)) (or (or P35 ?v_216) ?v_63)) (or (or ?v_87 ?v_136) ?v_101)) (or (or ?v_126 ?v_229) ?v_218)) (or (or ?v_172 ?v_15) P2)) (or (or ?v_150 ?v_167) ?v_17)) (or (or ?v_92 ?v_148) ?v_157)) (or (or ?v_69 ?v_10) ?v_68)) (or (or ?v_154 ?v_84) ?v_130)) (or (or P48 ?v_26) ?v_240)) (or (or P26 ?v_125) ?v_195)) (or (or ?v_167 ?v_86) P41)) (or (or ?v_126 ?v_130) ?v_25)) (or (or ?v_20 ?v_222) ?v_162)) (or (or ?v_84 ?v_183) ?v_200)) (or (or ?v_65 P32) ?v_192)) (or (or ?v_129 ?v_18) ?v_201)) (or (or ?v_241 ?v_179) ?v_50)) (or (or P30 ?v_180) ?v_192)) (or (or ?v_196 P42) ?v_75)) (or (or ?v_217 ?v_7) ?v_95)) (or (or P35 ?v_212) ?v_73)) (or (or ?v_117 ?v_87) ?v_258)) (or (or ?v_113 ?v_23) ?v_101)) (or (or ?v_53 ?v_167) ?v_214)) (or (or P39 ?v_5) ?v_85)) (or (or ?v_8 ?v_45) P3)) (or (or ?v_60 ?v_7) P29)) (or (or ?v_4 ?v_26) ?v_110)) (or (or ?v_240 P46) ?v_83)) (or (or P35 ?v_195) ?v_32)) (or (or ?v_106 ?v_47) ?v_113)) (or (or P40 ?v_72) ?v_23)) (or (or ?v_78 ?v_220) ?v_97)) (or (or ?v_14 ?v_171) ?v_198)) (or (or ?v_160 ?v_216) ?v_146)) (or (or ?v_69 ?v_94) ?v_128)) (or (or ?v_30 ?v_125) P2)) (or (or ?v_227 ?v_187) ?v_195)) (or (or ?v_222 ?v_177) ?v_108)) (or (or ?v_69 ?v_135) ?v_236)) (or (or P9 ?v_216) ?v_242)) (or (or ?v_243 P6) ?v_113)) (or (or ?v_65 ?v_48) ?v_40)) (or (or P47 ?v_71) ?v_0)) (or (or ?v_225 ?v_244) P6)) (or (or ?v_69 ?v_250) ?v_175)) (or (or ?v_51 ?v_185) ?v_197)) (or (or ?v_93 ?v_185) ?v_245)) (or (or ?v_205 ?v_115) ?v_122)) (or (or ?v_161 ?v_4) P3)) (or (or P45 ?v_71) P19)) (or (or ?v_185 ?v_213) ?v_120)) (or (or ?v_143 ?v_10) P6)) (or (or P36 ?v_38) P45)) (or (or P0 ?v_87) ?v_82)) (or (or ?v_14 ?v_246) P40)) (or (or P7 ?v_7) ?v_46)) (or (or ?v_141 ?v_91) ?v_236)) (or (or P13 ?v_136) ?v_5)) (or (or ?v_30 ?v_26) ?v_4)) (or (or ?v_256 ?v_44) ?v_238)) (or (or ?v_65 ?v_167) ?v_247)) (or (or ?v_208 P20) ?v_77)) (or (or ?v_219 P47) ?v_195)) (or (or P31 ?v_184) ?v_204)) (or (or P33 ?v_197) ?v_154)) (or (or ?v_152 ?v_225) ?v_228)) (or (or ?v_0 ?v_159) ?v_221)) (or (or ?v_139 ?v_20) ?v_236)) (or (or P21 ?v_213) ?v_20)) (or (or ?v_150 ?v_57) ?v_30)) (or (or P36 ?v_41) ?v_147)) (or (or ?v_107 ?v_43) ?v_35)) (or (or ?v_0 P9) ?v_58)) (or (or ?v_26 ?v_197) ?v_217)) (or (or ?v_51 ?v_222) ?v_55)) (or (or P22 ?v_154) ?v_215)) (or (or ?v_197 ?v_169) ?v_43)) (or (or ?v_164 ?v_128) ?v_130)) (or (or ?v_212 ?v_244) ?v_215)) (or (or ?v_88 P34) ?v_92)) (or (or ?v_38 ?v_94) ?v_61)) (or (or P3 ?v_87) ?v_68)) (or (or ?v_26 ?v_23) ?v_192)) (or (or P44 ?v_133) ?v_164)) (or (or ?v_184 ?v_53) ?v_37)) (or (or ?v_150 ?v_11) ?v_34)) (or (or ?v_248 P42) ?v_147)) (or (or ?v_141 P32) ?v_56)) (or (or ?v_152 ?v_200) ?v_3)) (or (or ?v_113 ?v_48) P0)) (or (or ?v_91 ?v_37) ?v_44)) (or (or ?v_245 P10) P45)) (or (or ?v_66 P5) ?v_156)) (or (or ?v_235 ?v_163) ?v_242)) (or (or ?v_114 ?v_249) ?v_124)) (or (or ?v_45 ?v_232) ?v_44)) (or (or ?v_146 ?v_7) ?v_151)) (or (or ?v_140 ?v_15) ?v_250)) (or (or ?v_147 ?v_110) ?v_197)) (or (or ?v_119 ?v_78) ?v_251)) (or (or ?v_159 ?v_172) ?v_248)) (or (or ?v_2 ?v_201) ?v_77)) (or (or ?v_157 ?v_262) ?v_14)) (or (or ?v_252 ?v_194) ?v_244)) (or (or ?v_212 ?v_57) ?v_213)) (or (or ?v_220 ?v_48) ?v_198)) (or (or ?v_91 ?v_158) ?v_4)) (or (or ?v_72 ?v_127) ?v_46)) (or (or ?v_179 P3) ?v_84)) (or (or ?v_210 ?v_82) P20)) (or (or P46 ?v_29) ?v_84)) (or (or P19 ?v_239) ?v_164)) (or (or ?v_217 ?v_14) ?v_84)) (or (or P28 ?v_217) ?v_253)) (or (or ?v_203 ?v_129) ?v_128)) (or (or ?v_161 ?v_50) ?v_84)) (or (or ?v_78 ?v_188) ?v_254)) (or (or ?v_93 ?v_112) ?v_110)) (or (or ?v_238 ?v_110) ?v_76)) (or (or ?v_89 ?v_39) ?v_114)) (or (or ?v_23 ?v_134) ?v_106)) (or (or P18 ?v_116) ?v_251)) (or (or ?v_126 P18) P15)) (or (or ?v_145 ?v_135) ?v_65)) (or (or ?v_82 ?v_149) ?v_67)) (or (or P22 ?v_204) ?v_54)) (or (or ?v_66 ?v_203) ?v_45)) (or (or ?v_157 ?v_122) ?v_5)) (or (or ?v_171 ?v_255) ?v_251)) (or (or ?v_172 ?v_244) ?v_78)) (or (or ?v_134 ?v_144) ?v_180)) (or (or ?v_227 P22) P18)) (or (or ?v_20 ?v_212) ?v_247)) (or (or P38 ?v_197) ?v_188)) (or (or ?v_235 ?v_64) ?v_152)) (or (or P39 P29) ?v_256)) (or (or P24 ?v_188) ?v_124)) (or (or ?v_147 ?v_84) ?v_99)) (or (or ?v_60 ?v_151) ?v_179)) (or (or ?v_232 ?v_111) P27)) (or (or ?v_2 ?v_177) ?v_257)) (or (or ?v_249 ?v_34) ?v_14)) (or (or ?v_167 ?v_107) ?v_112)) (or (or P37 ?v_105) ?v_80)) (or (or ?v_134 ?v_74) ?v_152)) (or (or ?v_51 ?v_210) ?v_252)) (or (or P48 ?v_89) ?v_73)) (or (or ?v_229 ?v_32) ?v_84)) (or (or ?v_203 ?v_209) ?v_24)) (or (or ?v_61 P43) ?v_44)) (or (or ?v_247 P2) ?v_111)) (or (or ?v_140 ?v_220) P19)) (or (or ?v_109 P38) ?v_191)) (or (or ?v_140 ?v_167) ?v_258)) (or (or ?v_217 P19) ?v_117)) (or (or ?v_31 ?v_204) ?v_219)) (or (or ?v_230 ?v_5) ?v_37)) (or (or P44 ?v_120) ?v_131)) (or (or ?v_242 ?v_51) ?v_84)) (or (or ?v_186 ?v_21) P33)) (or (or ?v_90 P33) ?v_131)) (or (or ?v_223 ?v_18) ?v_217)) (or (or ?v_139 P40) ?v_194)) (or (or ?v_253 ?v_187) ?v_75)) (or (or ?v_85 ?v_64) ?v_46)) (or (or ?v_259 P7) ?v_37)) (or (or ?v_251 P21) P0)) (or (or ?v_162 ?v_219) ?v_212)) (or (or ?v_243 ?v_85) ?v_251)) (or (or ?v_58 P44) ?v_101)) (or (or ?v_161 ?v_180) P20)) (or (or ?v_46 ?v_53) ?v_87)) (or (or ?v_235 ?v_150) ?v_89)) (or (or P24 ?v_248) ?v_224)) (or (or ?v_223 ?v_50) ?v_192)) (or (or ?v_110 ?v_188) ?v_256)) (or (or ?v_22 ?v_58) ?v_238)) (or (or P18 ?v_246) ?v_76)) (or (or ?v_188 ?v_139) ?v_218)) (or (or ?v_169 P42) ?v_157)) (or (or P26 ?v_42) ?v_45)) (or (or ?v_107 P41) ?v_117)) (or (or ?v_61 ?v_242) ?v_228)) (or (or ?v_85 P43) ?v_117)) (or (or P27 P3) ?v_226)) (or (or ?v_258 ?v_183) P40)) (or (or P45 ?v_259) ?v_260)) (or (or ?v_148 ?v_192) P33)) (or (or ?v_255 ?v_60) ?v_134)) (or (or ?v_56 ?v_4) ?v_235)) (or (or P3 ?v_158) ?v_37)) (or (or P1 ?v_83) P31)) (or (or ?v_237 ?v_102) ?v_233)) (or (or ?v_232 ?v_76) ?v_83)) (or (or P2 ?v_180) ?v_235)) (or (or ?v_140 ?v_136) ?v_175)) (or (or P20 ?v_149) ?v_214)) (or (or ?v_190 ?v_236) ?v_87)) (or (or P1 ?v_156) ?v_82)) (or (or ?v_212 ?v_20) ?v_210)) (or (or ?v_8 P23) ?v_118)) (or (or ?v_44 ?v_261) P21)) (or (or ?v_203 ?v_44) ?v_58)) (or (or P43 ?v_188) ?v_42)) (or (or ?v_131 ?v_143) ?v_165)) (or (or ?v_129 ?v_132) ?v_239)) (or (or P49 ?v_106) ?v_31)) (or (or ?v_222 ?v_83) ?v_106)) (or (or ?v_66 ?v_158) ?v_198)) (or (or ?v_213 ?v_8) P39)) (or (or P43 P10) ?v_195)) (or (or ?v_86 ?v_112) P21)) (or (or ?v_43 ?v_124) ?v_249)) (or (or ?v_202 P27) ?v_139)) (or (or ?v_50 P37) ?v_34)) (or (or ?v_62 ?v_167) ?v_169)) (or (or ?v_89 ?v_143) ?v_75)) (or (or ?v_198 P15) ?v_174)) (or (or P6 ?v_60) P11)) (or (or ?v_87 ?v_85) ?v_14)) (or (or ?v_75 ?v_2) ?v_31)) (or (or ?v_252 ?v_44) P25)) (or (or ?v_88 ?v_218) ?v_167)) (or (or ?v_61 ?v_33) P29)) (or (or ?v_201 ?v_174) ?v_182)) (or (or ?v_69 P49) ?v_48)) (or (or ?v_97 P30) ?v_75)) (or (or ?v_243 ?v_20) ?v_255)) (or (or ?v_152 ?v_163) ?v_236)) (or (or ?v_186 ?v_262) ?v_147)) (or (or ?v_130 ?v_13) ?v_254)) (or (or ?v_1 ?v_134) ?v_157)) (or (or ?v_63 ?v_106) ?v_129)) (or (or ?v_82 ?v_228) ?v_233)) (or (or ?v_114 ?v_143) ?v_203)) (or (or P35 ?v_107) ?v_214)) (or (or ?v_187 ?v_171) ?v_223)) (or (or ?v_221 ?v_153) ?v_196)) (or (or ?v_11 ?v_236) ?v_150)) (or (or ?v_138 ?v_7) ?v_3)) (or (or ?v_2 P27) ?v_56)) (or (or ?v_72 ?v_38) ?v_7)) (or (or ?v_247 ?v_157) ?v_177)) (or (or ?v_117 P48) ?v_101)) (or (or ?v_46 ?v_263) ?v_86)) (or (or ?v_54 ?v_181) ?v_77)) (or (or ?v_180 ?v_182) P35)) (or (or P42 ?v_196) ?v_75))))))))))))))))))))))))))))))))))))))))))))
(check-sat)
(exit)
